p cnf 116 390
c p weight -45 1 0
c p weight 45 -1 0
c p weight 49 6.12323399573676603586882014729198302312846062338790031898128063403419218957424163818359375E-17 0
c p weight -49 1 0
c p weight 50 1 0
c p weight -50 1 0
c p weight -47 1 0
c p weight 47 -1 0
c p weight -51 1 0
c p weight 51 -1 0
c p weight -53 1 0
c p weight 53 -1 0
c p weight -56 1 0
c p weight 56 -1 0
c p weight -59 1 0
c p weight 59 -1 0
c p weight -62 1 0
c p weight 62 -1 0
c p weight -65 1 0
c p weight 65 -1 0
c p weight -68 1 0
c p weight 68 -1 0
c p weight -71 1 0
c p weight 71 -1 0
c p weight -74 1 0
c p weight 74 -1 0
c p weight -77 1 0
c p weight 77 -1 0
c p weight -80 1 0
c p weight 80 -1 0
c p weight -83 1 0
c p weight 83 -1 0
c p weight -86 1 0
c p weight 86 -1 0
c p weight -89 1 0
c p weight 89 -1 0
c p weight -92 1 0
c p weight 92 -1 0
c p weight -95 1 0
c p weight 95 -1 0
c p weight -98 1 0
c p weight 98 -1 0
c p weight -101 1 0
c p weight 101 -1 0
c p weight -104 1 0
c p weight 104 -1 0
c p weight -107 1 0
c p weight 107 -1 0
c p weight -110 1 0
c p weight 110 -1 0
c p weight -113 1 0
c p weight 113 -1 0
c p weight 116 0.5 0
c p weight -116 1 0
116 0
-43 0
-41 0
-39 0
-37 0
-35 0
-33 0
-31 0
-29 0
-27 0
-25 0
-23 0
-21 0
-19 0
-17 0
-15 0
-13 0
-11 0
-9 0
-7 0
-5 0
-3 0
-1 0
-45 43 0
-45 44 0
45 -43 -44 0
46 43 -44 0
46 -43 44 0
-46 43 44 0
-46 -43 -44 0
-47 48 0
-47 46 0
-47 -43 0
47 -48 43 -46 0
48 -43 46 0
-48 43 46 0
-49 46 0
48 -49 -43 0
-48 -49 43 0
48 49 43 -46 0
-48 49 -43 -46 0
-50 46 0
48 -50 43 0
-48 -50 -43 0
48 50 -43 -46 0
-48 50 43 -46 0
-51 48 0
-51 46 0
51 -48 -46 0
52 48 -46 0
52 -48 46 0
-52 48 46 0
-52 -48 -46 0
-53 48 0
-53 42 0
-53 41 -52 0
-53 -41 52 0
53 -48 41 52 -42 0
53 -48 -41 -52 -42 0
55 48 -41 0
55 -48 41 0
-55 48 41 0
-55 -48 -41 0
54 52 -42 0
54 -52 42 0
-54 52 42 0
-54 -52 -42 0
-56 55 0
-56 40 0
-56 39 -42 0
-56 -39 42 0
56 -55 39 42 -40 0
56 -55 -39 -42 -40 0
58 55 -39 0
58 -55 39 0
-58 55 39 0
-58 -55 -39 0
57 42 -40 0
57 -42 40 0
-57 42 40 0
-57 -42 -40 0
-59 58 0
-59 38 0
-59 37 -40 0
-59 -37 40 0
59 -58 37 40 -38 0
59 -58 -37 -40 -38 0
61 58 -37 0
61 -58 37 0
-61 58 37 0
-61 -58 -37 0
60 40 -38 0
60 -40 38 0
-60 40 38 0
-60 -40 -38 0
-62 61 0
-62 36 0
-62 35 -38 0
-62 -35 38 0
62 -61 35 38 -36 0
62 -61 -35 -38 -36 0
64 61 -35 0
64 -61 35 0
-64 61 35 0
-64 -61 -35 0
63 38 -36 0
63 -38 36 0
-63 38 36 0
-63 -38 -36 0
-65 64 0
-65 34 0
-65 33 -36 0
-65 -33 36 0
65 -64 33 36 -34 0
65 -64 -33 -36 -34 0
67 64 -33 0
67 -64 33 0
-67 64 33 0
-67 -64 -33 0
66 36 -34 0
66 -36 34 0
-66 36 34 0
-66 -36 -34 0
-68 67 0
-68 32 0
-68 31 -34 0
-68 -31 34 0
68 -67 31 34 -32 0
68 -67 -31 -34 -32 0
70 67 -31 0
70 -67 31 0
-70 67 31 0
-70 -67 -31 0
69 34 -32 0
69 -34 32 0
-69 34 32 0
-69 -34 -32 0
-71 70 0
-71 30 0
-71 29 -32 0
-71 -29 32 0
71 -70 29 32 -30 0
71 -70 -29 -32 -30 0
73 70 -29 0
73 -70 29 0
-73 70 29 0
-73 -70 -29 0
72 32 -30 0
72 -32 30 0
-72 32 30 0
-72 -32 -30 0
-74 73 0
-74 28 0
-74 27 -30 0
-74 -27 30 0
74 -73 27 30 -28 0
74 -73 -27 -30 -28 0
76 73 -27 0
76 -73 27 0
-76 73 27 0
-76 -73 -27 0
75 30 -28 0
75 -30 28 0
-75 30 28 0
-75 -30 -28 0
-77 76 0
-77 26 0
-77 25 -28 0
-77 -25 28 0
77 -76 25 28 -26 0
77 -76 -25 -28 -26 0
79 76 -25 0
79 -76 25 0
-79 76 25 0
-79 -76 -25 0
78 28 -26 0
78 -28 26 0
-78 28 26 0
-78 -28 -26 0
-80 79 0
-80 24 0
-80 23 -26 0
-80 -23 26 0
80 -79 23 26 -24 0
80 -79 -23 -26 -24 0
82 79 -23 0
82 -79 23 0
-82 79 23 0
-82 -79 -23 0
81 26 -24 0
81 -26 24 0
-81 26 24 0
-81 -26 -24 0
-83 82 0
-83 22 0
-83 21 -24 0
-83 -21 24 0
83 -82 21 24 -22 0
83 -82 -21 -24 -22 0
85 82 -21 0
85 -82 21 0
-85 82 21 0
-85 -82 -21 0
84 24 -22 0
84 -24 22 0
-84 24 22 0
-84 -24 -22 0
-86 85 0
-86 20 0
-86 19 -22 0
-86 -19 22 0
86 -85 19 22 -20 0
86 -85 -19 -22 -20 0
88 85 -19 0
88 -85 19 0
-88 85 19 0
-88 -85 -19 0
87 22 -20 0
87 -22 20 0
-87 22 20 0
-87 -22 -20 0
-89 88 0
-89 18 0
-89 17 -20 0
-89 -17 20 0
89 -88 17 20 -18 0
89 -88 -17 -20 -18 0
91 88 -17 0
91 -88 17 0
-91 88 17 0
-91 -88 -17 0
90 20 -18 0
90 -20 18 0
-90 20 18 0
-90 -20 -18 0
-92 91 0
-92 16 0
-92 15 -18 0
-92 -15 18 0
92 -91 15 18 -16 0
92 -91 -15 -18 -16 0
94 91 -15 0
94 -91 15 0
-94 91 15 0
-94 -91 -15 0
93 18 -16 0
93 -18 16 0
-93 18 16 0
-93 -18 -16 0
-95 94 0
-95 14 0
-95 13 -16 0
-95 -13 16 0
95 -94 13 16 -14 0
95 -94 -13 -16 -14 0
97 94 -13 0
97 -94 13 0
-97 94 13 0
-97 -94 -13 0
96 16 -14 0
96 -16 14 0
-96 16 14 0
-96 -16 -14 0
-98 97 0
-98 12 0
-98 11 -14 0
-98 -11 14 0
98 -97 11 14 -12 0
98 -97 -11 -14 -12 0
100 97 -11 0
100 -97 11 0
-100 97 11 0
-100 -97 -11 0
99 14 -12 0
99 -14 12 0
-99 14 12 0
-99 -14 -12 0
-101 100 0
-101 10 0
-101 9 -12 0
-101 -9 12 0
101 -100 9 12 -10 0
101 -100 -9 -12 -10 0
103 100 -9 0
103 -100 9 0
-103 100 9 0
-103 -100 -9 0
102 12 -10 0
102 -12 10 0
-102 12 10 0
-102 -12 -10 0
-104 103 0
-104 8 0
-104 7 -10 0
-104 -7 10 0
104 -103 7 10 -8 0
104 -103 -7 -10 -8 0
106 103 -7 0
106 -103 7 0
-106 103 7 0
-106 -103 -7 0
105 10 -8 0
105 -10 8 0
-105 10 8 0
-105 -10 -8 0
-107 106 0
-107 6 0
-107 5 -8 0
-107 -5 8 0
107 -106 5 8 -6 0
107 -106 -5 -8 -6 0
109 106 -5 0
109 -106 5 0
-109 106 5 0
-109 -106 -5 0
108 8 -6 0
108 -8 6 0
-108 8 6 0
-108 -8 -6 0
-110 109 0
-110 4 0
-110 3 -6 0
-110 -3 6 0
110 -109 3 6 -4 0
110 -109 -3 -6 -4 0
112 109 -3 0
112 -109 3 0
-112 109 3 0
-112 -109 -3 0
111 6 -4 0
111 -6 4 0
-111 6 4 0
-111 -6 -4 0
-113 112 0
-113 2 0
-113 1 -4 0
-113 -1 4 0
113 -112 1 4 -2 0
113 -112 -1 -4 -2 0
115 112 -1 0
115 -112 1 0
-115 112 1 0
-115 -112 -1 0
114 4 -2 0
114 -4 2 0
-114 4 2 0
-114 -4 -2 0
-115 0
-112 0
-114 0
-109 0
-111 0
-106 0
-108 0
-103 0
-105 0
-100 0
-102 0
-97 0
-99 0
-94 0
-96 0
-91 0
-93 0
-88 0
-90 0
-85 0
-87 0
-82 0
-84 0
-79 0
-81 0
-76 0
-78 0
-73 0
-75 0
-70 0
-72 0
-67 0
-69 0
-64 0
-66 0
-61 0
-63 0
-58 0
-60 0
-55 0
-57 0
-48 0
-54 0
